
Gurobi 10.0.0 (linux64) logging started Wed Nov 16 00:11:06 2022

Set parameter LogFile to value "../results/k03_n100_d050/k03_n128_d063_miles1500_A-MILO_log.txt"
Gurobi Optimizer version 10.0.0 build v10.0.0rc2 (linux64)

CPU model: Intel(R) Xeon(R) CPU E5-2630 v4 @ 2.20GHz, instruction set [SSE2|AVX|AVX2]
Thread count: 20 physical cores, 40 logical processors, using up to 10 threads

Optimize a model with 46910 rows, 5582 columns and 140730 nonzeros
Model fingerprint: 0x26332313
Coefficient statistics:
  Matrix range     [1e+00, 1e+00]
  Objective range  [1e+00, 1e+00]
  Bounds range     [1e+00, 1e+00]
  RHS range        [1e+00, 2e+00]
Presolve removed 722 rows and 106 columns
Presolve time: 0.10s
Presolved: 46188 rows, 5476 columns, 138358 nonzeros

Concurrent LP optimizer: primal simplex, dual simplex, and barrier
Showing barrier log only...

Ordering time: 0.00s

Barrier statistics:
 AA' NZ     : 9.720e+03
 Factor NZ  : 1.532e+04 (roughly 10 MB of memory)
 Factor Ops : 2.897e+05 (less than 1 second per iteration)
 Threads    : 1

Barrier performed 0 iterations in 0.23 seconds (0.14 work units)
Barrier solve interrupted - model solved by another algorithm


Solved with dual simplex
Iteration    Objective       Primal Inf.    Dual Inf.      Time
    3250    5.1980000e+03   0.000000e+00   0.000000e+00      0s

Use crossover to convert LP symmetric solution to basic solution...
Crossover log...

     127 PPushes remaining with PInf 0.0000000e+00                 0s
       0 PPushes remaining with PInf 0.0000000e+00                 0s

  Push phase complete: Pinf 0.0000000e+00, Dinf 0.0000000e+00      0s

Iteration    Objective       Primal Inf.    Dual Inf.      Time
    3380    5.1980000e+03   0.000000e+00   0.000000e+00      0s

Solved in 3380 iterations and 0.33 seconds (0.18 work units)
Optimal objective  5.198000000e+03
